certificates/rado_a15_c42_N37.cnf
c Rad2 upper bound instance: x1 + 15*x2 - x3 = 42, interval [1,37]
p cnf 37 184
1 3 4 0
-1 -3 -4 0
1 4 19 0
-1 -4 -19 0
1 5 34 0
-1 -5 -34 0
2 3 5 0
-2 -3 -5 0
2 4 20 0
-2 -4 -20 0
2 5 35 0
-2 -5 -35 0
3 6 0
-3 -6 0
3 4 21 0
-3 -4 -21 0
3 5 36 0
-3 -5 -36 0
3 4 7 0
-3 -4 -7 0
4 22 0
-4 -22 0
4 5 37 0
-4 -5 -37 0
3 5 8 0
-3 -5 -8 0
4 5 23 0
-4 -5 -23 0
3 6 9 0
-3 -6 -9 0
4 6 24 0
-4 -6 -24 0
3 7 10 0
-3 -7 -10 0
4 7 25 0
-4 -7 -25 0
3 8 11 0
-3 -8 -11 0
4 8 26 0
-4 -8 -26 0
3 9 12 0
-3 -9 -12 0
4 9 27 0
-4 -9 -27 0
3 10 13 0
-3 -10 -13 0
4 10 28 0
-4 -10 -28 0
3 11 14 0
-3 -11 -14 0
4 11 29 0
-4 -11 -29 0
3 12 15 0
-3 -12 -15 0
4 12 30 0
-4 -12 -30 0
1 2 13 0
-1 -2 -13 0
3 13 16 0
-3 -13 -16 0
4 13 31 0
-4 -13 -31 0
2 14 0
-2 -14 0
3 14 17 0
-3 -14 -17 0
4 14 32 0
-4 -14 -32 0
2 3 15 0
-2 -3 -15 0
3 15 18 0
-3 -15 -18 0
4 15 33 0
-4 -15 -33 0
2 4 16 0
-2 -4 -16 0
3 16 19 0
-3 -16 -19 0
4 16 34 0
-4 -16 -34 0
2 5 17 0
-2 -5 -17 0
3 17 20 0
-3 -17 -20 0
4 17 35 0
-4 -17 -35 0
2 6 18 0
-2 -6 -18 0
3 18 21 0
-3 -18 -21 0
4 18 36 0
-4 -18 -36 0
2 7 19 0
-2 -7 -19 0
3 19 22 0
-3 -19 -22 0
4 19 37 0
-4 -19 -37 0
2 8 20 0
-2 -8 -20 0
3 20 23 0
-3 -20 -23 0
2 9 21 0
-2 -9 -21 0
3 21 24 0
-3 -21 -24 0
2 10 22 0
-2 -10 -22 0
3 22 25 0
-3 -22 -25 0
2 11 23 0
-2 -11 -23 0
3 23 26 0
-3 -23 -26 0
2 12 24 0
-2 -12 -24 0
3 24 27 0
-3 -24 -27 0
2 13 25 0
-2 -13 -25 0
3 25 28 0
-3 -25 -28 0
2 14 26 0
-2 -14 -26 0
3 26 29 0
-3 -26 -29 0
2 15 27 0
-2 -15 -27 0
3 27 30 0
-3 -27 -30 0
1 28 0
-1 -28 0
2 16 28 0
-2 -16 -28 0
3 28 31 0
-3 -28 -31 0
1 2 29 0
-1 -2 -29 0
2 17 29 0
-2 -17 -29 0
3 29 32 0
-3 -29 -32 0
1 3 30 0
-1 -3 -30 0
2 18 30 0
-2 -18 -30 0
3 30 33 0
-3 -30 -33 0
1 4 31 0
-1 -4 -31 0
2 19 31 0
-2 -19 -31 0
3 31 34 0
-3 -31 -34 0
1 5 32 0
-1 -5 -32 0
2 20 32 0
-2 -20 -32 0
3 32 35 0
-3 -32 -35 0
1 6 33 0
-1 -6 -33 0
2 21 33 0
-2 -21 -33 0
3 33 36 0
-3 -33 -36 0
1 7 34 0
-1 -7 -34 0
2 22 34 0
-2 -22 -34 0
3 34 37 0
-3 -34 -37 0
1 8 35 0
-1 -8 -35 0
2 23 35 0
-2 -23 -35 0
1 9 36 0
-1 -9 -36 0
2 24 36 0
-2 -24 -36 0
1 10 37 0
-1 -10 -37 0
2 25 37 0
-2 -25 -37 0
