certificates/rado_a15_c42_N37.drat
-4 3 -37 0
-34 -37 0
d -34 -3 -37 0
-1 4 -37 0
4 -37 0
d -1 4 -37 0
-37 0
1 -4 0
-4 0
22 0
5 0
19 0
-3 0
6 0
34 0
21 0
7 0
1 0
-33 0
0
